c Reduced graph for mulsol.i.5 generated by Cyril Grelier
p edge 118 2509
e 1 2
e 1 4
e 1 5
e 1 6
e 1 7
e 1 8
e 1 10
e 1 11
e 1 15
e 1 16
e 1 20
e 1 21
e 1 22
e 1 23
e 1 25
e 1 26
e 1 30
e 1 32
e 1 34
e 1 36
e 1 37
e 1 39
e 1 40
e 1 43
e 1 44
e 1 45
e 1 46
e 1 47
e 1 50
e 1 51
e 1 53
e 1 54
e 1 60
e 1 65
e 1 66
e 1 68
e 1 70
e 1 80
e 1 81
e 1 82
e 1 84
e 1 91
e 1 92
e 1 93
e 1 102
e 1 103
e 1 108
e 1 110
e 1 111
e 1 112
e 1 114
e 1 116
e 2 4
e 2 5
e 2 6
e 2 7
e 2 10
e 2 14
e 2 15
e 2 16
e 2 20
e 2 21
e 2 22
e 2 23
e 2 25
e 2 26
e 2 30
e 2 32
e 2 34
e 2 36
e 2 37
e 2 39
e 2 40
e 2 42
e 2 43
e 2 44
e 2 45
e 2 46
e 2 47
e 2 53
e 2 54
e 2 60
e 2 65
e 2 66
e 2 68
e 2 70
e 2 80
e 2 81
e 2 84
e 2 88
e 2 89
e 2 91
e 2 93
e 2 94
e 2 102
e 2 103
e 2 106
e 2 108
e 2 110
e 2 111
e 2 112
e 2 114
e 2 116
e 3 9
e 3 14
e 3 27
e 3 29
e 3 31
e 3 33
e 3 36
e 3 38
e 3 42
e 3 49
e 3 52
e 3 55
e 3 56
e 3 59
e 3 61
e 3 64
e 3 68
e 3 69
e 3 71
e 3 74
e 3 75
e 3 76
e 3 77
e 3 78
e 3 79
e 3 83
e 3 85
e 3 86
e 3 88
e 3 89
e 3 90
e 3 94
e 3 95
e 3 96
e 3 97
e 3 98
e 3 99
e 3 100
e 3 101
e 3 104
e 3 106
e 3 107
e 3 109
e 3 113
e 3 115
e 3 117
e 3 118
e 4 5
e 4 6
e 4 7
e 4 10
e 4 15
e 4 16
e 4 20
e 4 21
e 4 22
e 4 23
e 4 25
e 4 26
e 4 30
e 4 32
e 4 34
e 4 36
e 4 37
e 4 39
e 4 40
e 4 43
e 4 44
e 4 45
e 4 46
e 4 47
e 4 53
e 4 54
e 4 60
e 4 66
e 4 68
e 4 70
e 4 80
e 4 81
e 4 84
e 4 88
e 4 91
e 4 93
e 4 102
e 4 103
e 4 108
e 4 110
e 4 111
e 4 116
e 5 6
e 5 7
e 5 10
e 5 15
e 5 16
e 5 20
e 5 21
e 5 22
e 5 23
e 5 25
e 5 26
e 5 30
e 5 32
e 5 34
e 5 36
e 5 37
e 5 39
e 5 40
e 5 43
e 5 44
e 5 45
e 5 46
e 5 47
e 5 53
e 5 54
e 5 60
e 5 66
e 5 68
e 5 70
e 5 80
e 5 81
e 5 84
e 5 88
e 5 91
e 5 93
e 5 102
e 5 103
e 5 108
e 5 110
e 5 111
e 5 116
e 6 7
e 6 20
e 6 21
e 6 22
e 6 25
e 6 26
e 6 30
e 6 36
e 6 37
e 6 43
e 6 44
e 6 45
e 6 46
e 6 53
e 6 54
e 6 60
e 6 68
e 6 70
e 6 80
e 6 81
e 6 88
e 6 91
e 6 93
e 6 102
e 6 108
e 6 110
e 6 111
e 7 20
e 7 21
e 7 22
e 7 25
e 7 26
e 7 30
e 7 36
e 7 37
e 7 43
e 7 44
e 7 45
e 7 46
e 7 53
e 7 54
e 7 60
e 7 68
e 7 70
e 7 80
e 7 81
e 7 88
e 7 91
e 7 93
e 7 102
e 7 108
e 7 110
e 7 111
e 8 14
e 8 20
e 8 21
e 8 22
e 8 29
e 8 36
e 8 37
e 8 42
e 8 52
e 8 53
e 8 54
e 8 64
e 8 68
e 8 70
e 8 74
e 8 78
e 8 80
e 8 88
e 8 89
e 8 90
e 8 94
e 8 95
e 8 100
e 8 101
e 8 106
e 8 107
e 8 108
e 8 110
e 8 111
e 9 14
e 9 29
e 9 36
e 9 38
e 9 42
e 9 52
e 9 55
e 9 59
e 9 64
e 9 68
e 9 69
e 9 74
e 9 75
e 9 78
e 9 79
e 9 88
e 9 89
e 9 90
e 9 94
e 9 95
e 9 96
e 9 97
e 9 98
e 9 100
e 9 101
e 9 106
e 9 107
e 9 109
e 9 117
e 10 20
e 10 21
e 10 22
e 10 25
e 10 26
e 10 30
e 10 36
e 10 37
e 10 43
e 10 44
e 10 45
e 10 46
e 10 53
e 10 54
e 10 60
e 10 68
e 10 70
e 10 80
e 10 81
e 10 88
e 10 91
e 10 102
e 10 103
e 10 108
e 10 110
e 10 111
e 11 14
e 11 21
e 11 22
e 11 29
e 11 36
e 11 37
e 11 42
e 11 52
e 11 53
e 11 54
e 11 64
e 11 68
e 11 74
e 11 78
e 11 80
e 11 88
e 11 89
e 11 90
e 11 94
e 11 95
e 11 100
e 11 101
e 11 106
e 11 107
e 11 108
e 11 110
e 12 14
e 12 18
e 12 29
e 12 36
e 12 42
e 12 52
e 12 64
e 12 67
e 12 68
e 12 69
e 12 74
e 12 78
e 12 79
e 12 88
e 12 89
e 12 90
e 12 94
e 12 95
e 12 100
e 12 101
e 12 106
e 12 107
e 13 14
e 13 29
e 13 36
e 13 42
e 13 52
e 13 64
e 13 68
e 13 74
e 13 78
e 13 88
e 13 89
e 13 90
e 13 94
e 13 95
e 13 100
e 13 101
e 13 106
e 13 107
e 14 17
e 14 18
e 14 19
e 14 24
e 14 27
e 14 28
e 14 29
e 14 31
e 14 33
e 14 35
e 14 38
e 14 41
e 14 42
e 14 43
e 14 44
e 14 45
e 14 48
e 14 49
e 14 50
e 14 51
e 14 52
e 14 55
e 14 56
e 14 57
e 14 58
e 14 59
e 14 61
e 14 62
e 14 63
e 14 64
e 14 65
e 14 67
e 14 69
e 14 71
e 14 72
e 14 73
e 14 74
e 14 75
e 14 76
e 14 77
e 14 78
e 14 79
e 14 82
e 14 83
e 14 85
e 14 86
e 14 87
e 14 88
e 14 89
e 14 90
e 14 91
e 14 92
e 14 94
e 14 95
e 14 96
e 14 97
e 14 98
e 14 99
e 14 100
e 14 101
e 14 104
e 14 105
e 14 106
e 14 107
e 14 109
e 14 112
e 14 113
e 14 114
e 14 115
e 14 117
e 14 118
e 15 20
e 15 21
e 15 22
e 15 23
e 15 25
e 15 26
e 15 30
e 15 36
e 15 37
e 15 43
e 15 44
e 15 45
e 15 46
e 15 53
e 15 54
e 15 60
e 15 68
e 15 70
e 15 80
e 15 81
e 15 88
e 15 91
e 15 102
e 15 108
e 15 110
e 15 111
e 16 20
e 16 21
e 16 22
e 16 25
e 16 26
e 16 30
e 16 32
e 16 36
e 16 37
e 16 43
e 16 44
e 16 45
e 16 46
e 16 53
e 16 54
e 16 60
e 16 68
e 16 70
e 16 80
e 16 81
e 16 88
e 16 91
e 16 102
e 16 108
e 16 110
e 16 111
e 17 24
e 17 29
e 17 36
e 17 42
e 17 52
e 17 57
e 17 64
e 17 68
e 17 69
e 17 74
e 17 78
e 17 79
e 17 88
e 17 89
e 17 90
e 17 94
e 17 95
e 17 100
e 17 101
e 17 105
e 17 106
e 17 107
e 18 29
e 18 36
e 18 42
e 18 52
e 18 64
e 18 67
e 18 68
e 18 69
e 18 74
e 18 78
e 18 79
e 18 88
e 18 89
e 18 90
e 18 94
e 18 95
e 18 100
e 18 101
e 18 106
e 18 107
e 19 28
e 19 29
e 19 36
e 19 41
e 19 42
e 19 52
e 19 64
e 19 68
e 19 74
e 19 78
e 19 88
e 19 89
e 19 90
e 19 94
e 19 95
e 19 100
e 19 101
e 19 106
e 19 107
e 20 21
e 20 22
e 20 23
e 20 25
e 20 26
e 20 30
e 20 32
e 20 34
e 20 36
e 20 37
e 20 39
e 20 40
e 20 43
e 20 44
e 20 45
e 20 46
e 20 47
e 20 50
e 20 53
e 20 54
e 20 60
e 20 65
e 20 66
e 20 68
e 20 70
e 20 80
e 20 81
e 20 82
e 20 84
e 20 91
e 20 92
e 20 93
e 20 102
e 20 103
e 20 108
e 20 110
e 20 111
e 20 112
e 20 114
e 20 116
e 21 22
e 21 23
e 21 25
e 21 26
e 21 30
e 21 32
e 21 34
e 21 36
e 21 37
e 21 39
e 21 40
e 21 43
e 21 44
e 21 45
e 21 46
e 21 47
e 21 53
e 21 54
e 21 60
e 21 65
e 21 66
e 21 68
e 21 70
e 21 80
e 21 81
e 21 84
e 21 91
e 21 93
e 21 102
e 21 103
e 21 108
e 21 110
e 21 111
e 21 112
e 21 114
e 21 116
e 22 23
e 22 25
e 22 26
e 22 30
e 22 32
e 22 34
e 22 36
e 22 37
e 22 39
e 22 40
e 22 43
e 22 44
e 22 45
e 22 46
e 22 47
e 22 53
e 22 54
e 22 60
e 22 65
e 22 66
e 22 68
e 22 70
e 22 80
e 22 81
e 22 84
e 22 91
e 22 93
e 22 102
e 22 103
e 22 108
e 22 110
e 22 111
e 22 112
e 22 114
e 22 116
e 23 25
e 23 26
e 23 30
e 23 36
e 23 37
e 23 43
e 23 44
e 23 45
e 23 46
e 23 53
e 23 54
e 23 60
e 23 68
e 23 70
e 23 80
e 23 81
e 23 88
e 23 91
e 23 102
e 23 108
e 23 110
e 23 111
e 24 29
e 24 35
e 24 36
e 24 42
e 24 48
e 24 52
e 24 57
e 24 64
e 24 68
e 24 69
e 24 74
e 24 78
e 24 79
e 24 88
e 24 89
e 24 90
e 24 94
e 24 95
e 24 96
e 24 100
e 24 101
e 24 105
e 24 106
e 24 107
e 24 109
e 25 26
e 25 30
e 25 32
e 25 34
e 25 36
e 25 37
e 25 39
e 25 40
e 25 43
e 25 44
e 25 45
e 25 46
e 25 47
e 25 53
e 25 54
e 25 60
e 25 65
e 25 66
e 25 68
e 25 70
e 25 80
e 25 81
e 25 84
e 25 91
e 25 93
e 25 102
e 25 103
e 25 108
e 25 110
e 25 111
e 25 112
e 25 114
e 25 116
e 26 30
e 26 32
e 26 34
e 26 36
e 26 37
e 26 39
e 26 40
e 26 43
e 26 44
e 26 45
e 26 46
e 26 47
e 26 53
e 26 54
e 26 60
e 26 66
e 26 68
e 26 70
e 26 80
e 26 81
e 26 84
e 26 88
e 26 91
e 26 93
e 26 102
e 26 103
e 26 108
e 26 110
e 26 111
e 26 116
e 27 29
e 27 36
e 27 38
e 27 42
e 27 52
e 27 55
e 27 59
e 27 64
e 27 68
e 27 69
e 27 74
e 27 75
e 27 78
e 27 79
e 27 88
e 27 89
e 27 90
e 27 94
e 27 95
e 27 96
e 27 97
e 27 98
e 27 100
e 27 101
e 27 106
e 27 107
e 27 109
e 27 115
e 28 29
e 28 36
e 28 41
e 28 42
e 28 52
e 28 64
e 28 68
e 28 74
e 28 78
e 28 88
e 28 89
e 28 90
e 28 94
e 28 95
e 28 100
e 28 101
e 28 106
e 28 107
e 29 31
e 29 33
e 29 35
e 29 38
e 29 41
e 29 42
e 29 48
e 29 49
e 29 50
e 29 51
e 29 52
e 29 55
e 29 56
e 29 57
e 29 58
e 29 59
e 29 61
e 29 62
e 29 63
e 29 64
e 29 67
e 29 69
e 29 71
e 29 72
e 29 73
e 29 74
e 29 75
e 29 76
e 29 77
e 29 78
e 29 79
e 29 82
e 29 83
e 29 85
e 29 86
e 29 87
e 29 88
e 29 89
e 29 90
e 29 92
e 29 94
e 29 95
e 29 96
e 29 97
e 29 98
e 29 99
e 29 100
e 29 101
e 29 104
e 29 105
e 29 106
e 29 107
e 29 109
e 29 113
e 29 115
e 29 117
e 29 118
e 30 32
e 30 34
e 30 36
e 30 37
e 30 39
e 30 40
e 30 43
e 30 44
e 30 45
e 30 46
e 30 47
e 30 53
e 30 54
e 30 60
e 30 66
e 30 68
e 30 70
e 30 80
e 30 81
e 30 84
e 30 88
e 30 91
e 30 93
e 30 102
e 30 103
e 30 108
e 30 110
e 30 111
e 30 116
e 31 36
e 31 38
e 31 42
e 31 52
e 31 55
e 31 56
e 31 59
e 31 64
e 31 68
e 31 69
e 31 74
e 31 75
e 31 78
e 31 79
e 31 88
e 31 89
e 31 90
e 31 94
e 31 95
e 31 96
e 31 97
e 31 98
e 31 99
e 31 100
e 31 101
e 31 106
e 31 107
e 31 109
e 32 36
e 32 37
e 32 43
e 32 44
e 32 45
e 32 46
e 32 53
e 32 54
e 32 60
e 32 68
e 32 70
e 32 80
e 32 81
e 32 84
e 32 88
e 32 91
e 32 102
e 32 108
e 32 110
e 32 111
e 33 36
e 33 38
e 33 42
e 33 52
e 33 55
e 33 59
e 33 64
e 33 68
e 33 69
e 33 74
e 33 75
e 33 78
e 33 79
e 33 86
e 33 88
e 33 89
e 33 90
e 33 94
e 33 95
e 33 96
e 33 97
e 33 98
e 33 100
e 33 101
e 33 106
e 33 107
e 33 109
e 34 36
e 34 37
e 34 40
e 34 43
e 34 44
e 34 45
e 34 46
e 34 53
e 34 54
e 34 60
e 34 68
e 34 70
e 34 80
e 34 81
e 34 88
e 34 91
e 34 102
e 34 108
e 34 110
e 34 111
e 35 36
e 35 42
e 35 48
e 35 52
e 35 59
e 35 64
e 35 68
e 35 69
e 35 74
e 35 78
e 35 79
e 35 88
e 35 89
e 35 90
e 35 94
e 35 95
e 35 96
e 35 100
e 35 101
e 35 105
e 35 106
e 35 107
e 35 109
e 36 37
e 36 38
e 36 39
e 36 40
e 36 41
e 36 43
e 36 44
e 36 45
e 36 46
e 36 47
e 36 48
e 36 49
e 36 50
e 36 51
e 36 53
e 36 54
e 36 55
e 36 56
e 36 57
e 36 58
e 36 59
e 36 60
e 36 61
e 36 62
e 36 63
e 36 65
e 36 66
e 36 67
e 36 68
e 36 69
e 36 70
e 36 71
e 36 72
e 36 73
e 36 75
e 36 76
e 36 77
e 36 79
e 36 80
e 36 81
e 36 82
e 36 83
e 36 84
e 36 85
e 36 86
e 36 87
e 36 91
e 36 92
e 36 93
e 36 96
e 36 97
e 36 98
e 36 99
e 36 102
e 36 103
e 36 104
e 36 105
e 36 108
e 36 109
e 36 110
e 36 111
e 36 112
e 36 113
e 36 114
e 36 115
e 36 116
e 36 117
e 36 118
e 37 39
e 37 40
e 37 43
e 37 44
e 37 45
e 37 46
e 37 47
e 37 50
e 37 51
e 37 53
e 37 54
e 37 60
e 37 63
e 37 65
e 37 66
e 37 68
e 37 70
e 37 73
e 37 80
e 37 81
e 37 82
e 37 84
e 37 87
e 37 91
e 37 92
e 37 93
e 37 102
e 37 103
e 37 108
e 37 110
e 37 111
e 37 112
e 37 114
e 37 116
e 38 42
e 38 49
e 38 52
e 38 55
e 38 56
e 38 59
e 38 61
e 38 64
e 38 68
e 38 69
e 38 74
e 38 75
e 38 76
e 38 77
e 38 78
e 38 79
e 38 83
e 38 85
e 38 86
e 38 88
e 38 89
e 38 90
e 38 94
e 38 95
e 38 96
e 38 97
e 38 98
e 38 99
e 38 100
e 38 101
e 38 104
e 38 106
e 38 107
e 38 109
e 38 113
e 38 115
e 38 117
e 38 118
e 39 43
e 39 44
e 39 45
e 39 46
e 39 47
e 39 53
e 39 54
e 39 60
e 39 68
e 39 70
e 39 80
e 39 81
e 39 88
e 39 91
e 39 102
e 39 103
e 39 108
e 39 110
e 39 111
e 40 43
e 40 44
e 40 45
e 40 46
e 40 53
e 40 54
e 40 60
e 40 68
e 40 70
e 40 80
e 40 81
e 40 88
e 40 91
e 40 102
e 40 108
e 40 110
e 40 111
e 41 42
e 41 52
e 41 64
e 41 68
e 41 74
e 41 78
e 41 88
e 41 89
e 41 90
e 41 94
e 41 95
e 41 100
e 41 101
e 41 106
e 41 107
e 42 43
e 42 44
e 42 48
e 42 49
e 42 50
e 42 51
e 42 52
e 42 55
e 42 56
e 42 57
e 42 58
e 42 59
e 42 61
e 42 62
e 42 63
e 42 64
e 42 65
e 42 67
e 42 69
e 42 71
e 42 72
e 42 73
e 42 74
e 42 75
e 42 76
e 42 77
e 42 78
e 42 79
e 42 82
e 42 83
e 42 85
e 42 86
e 42 87
e 42 88
e 42 89
e 42 90
e 42 92
e 42 94
e 42 95
e 42 96
e 42 97
e 42 98
e 42 99
e 42 100
e 42 101
e 42 104
e 42 105
e 42 106
e 42 107
e 42 109
e 42 112
e 42 113
e 42 114
e 42 115
e 42 117
e 42 118
e 43 44
e 43 45
e 43 46
e 43 47
e 43 53
e 43 54
e 43 60
e 43 65
e 43 66
e 43 68
e 43 70
e 43 80
e 43 81
e 43 84
e 43 88
e 43 91
e 43 93
e 43 94
e 43 102
e 43 103
e 43 106
e 43 108
e 43 110
e 43 111
e 43 112
e 43 114
e 43 116
e 44 45
e 44 46
e 44 47
e 44 53
e 44 54
e 44 60
e 44 65
e 44 66
e 44 68
e 44 70
e 44 80
e 44 81
e 44 84
e 44 88
e 44 91
e 44 93
e 44 94
e 44 102
e 44 103
e 44 108
e 44 110
e 44 111
e 44 112
e 44 114
e 44 116
e 45 46
e 45 47
e 45 53
e 45 54
e 45 60
e 45 65
e 45 66
e 45 68
e 45 70
e 45 80
e 45 81
e 45 84
e 45 88
e 45 91
e 45 93
e 45 102
e 45 103
e 45 108
e 45 110
e 45 111
e 45 112
e 45 114
e 45 116
e 46 47
e 46 53
e 46 54
e 46 60
e 46 65
e 46 66
e 46 68
e 46 70
e 46 80
e 46 81
e 46 84
e 46 88
e 46 91
e 46 93
e 46 102
e 46 103
e 46 108
e 46 110
e 46 111
e 46 112
e 46 114
e 46 116
e 47 53
e 47 54
e 47 60
e 47 68
e 47 70
e 47 80
e 47 81
e 47 88
e 47 91
e 47 102
e 47 103
e 47 108
e 47 110
e 47 111
e 48 52
e 48 57
e 48 59
e 48 64
e 48 68
e 48 69
e 48 71
e 48 72
e 48 74
e 48 75
e 48 78
e 48 79
e 48 88
e 48 89
e 48 90
e 48 94
e 48 95
e 48 96
e 48 100
e 48 101
e 48 105
e 48 106
e 48 107
e 48 109
e 49 52
e 49 55
e 49 59
e 49 64
e 49 68
e 49 69
e 49 74
e 49 75
e 49 78
e 49 79
e 49 85
e 49 88
e 49 89
e 49 90
e 49 94
e 49 95
e 49 96
e 49 97
e 49 98
e 49 100
e 49 101
e 49 106
e 49 107
e 49 109
e 50 51
e 50 52
e 50 58
e 50 63
e 50 64
e 50 68
e 50 73
e 50 74
e 50 78
e 50 80
e 50 82
e 50 87
e 50 88
e 50 89
e 50 90
e 50 92
e 50 94
e 50 95
e 50 100
e 50 101
e 50 106
e 50 107
e 50 108
e 51 52
e 51 58
e 51 63
e 51 64
e 51 68
e 51 73
e 51 74
e 51 78
e 51 80
e 51 82
e 51 87
e 51 88
e 51 89
e 51 90
e 51 92
e 51 94
e 51 95
e 51 100
e 51 101
e 51 106
e 51 107
e 51 108
e 52 55
e 52 56
e 52 57
e 52 58
e 52 59
e 52 61
e 52 62
e 52 63
e 52 64
e 52 67
e 52 69
e 52 71
e 52 72
e 52 73
e 52 74
e 52 75
e 52 76
e 52 77
e 52 78
e 52 79
e 52 82
e 52 83
e 52 85
e 52 86
e 52 87
e 52 88
e 52 89
e 52 90
e 52 92
e 52 94
e 52 95
e 52 96
e 52 97
e 52 98
e 52 99
e 52 100
e 52 101
e 52 104
e 52 105
e 52 106
e 52 107
e 52 109
e 52 113
e 52 115
e 52 117
e 52 118
e 53 54
e 53 60
e 53 65
e 53 66
e 53 68
e 53 70
e 53 80
e 53 81
e 53 84
e 53 91
e 53 93
e 53 102
e 53 103
e 53 108
e 53 110
e 53 111
e 53 112
e 53 114
e 53 116
e 54 60
e 54 65
e 54 66
e 54 68
e 54 70
e 54 80
e 54 81
e 54 84
e 54 91
e 54 93
e 54 102
e 54 103
e 54 108
e 54 110
e 54 111
e 54 112
e 54 114
e 54 116
e 55 56
e 55 59
e 55 61
e 55 64
e 55 68
e 55 69
e 55 71
e 55 74
e 55 75
e 55 76
e 55 77
e 55 78
e 55 79
e 55 83
e 55 85
e 55 86
e 55 88
e 55 89
e 55 90
e 55 94
e 55 95
e 55 96
e 55 97
e 55 98
e 55 99
e 55 100
e 55 101
e 55 104
e 55 106
e 55 107
e 55 109
e 55 113
e 55 115
e 55 117
e 55 118
e 56 59
e 56 64
e 56 68
e 56 69
e 56 74
e 56 75
e 56 78
e 56 79
e 56 88
e 56 89
e 56 90
e 56 94
e 56 95
e 56 96
e 56 97
e 56 98
e 56 99
e 56 100
e 56 101
e 56 106
e 56 107
e 56 109
e 57 64
e 57 68
e 57 69
e 57 74
e 57 78
e 57 79
e 57 88
e 57 89
e 57 90
e 57 94
e 57 95
e 57 100
e 57 101
e 57 105
e 57 106
e 57 107
e 57 109
e 58 63
e 58 64
e 58 68
e 58 73
e 58 74
e 58 78
e 58 82
e 58 87
e 58 88
e 58 89
e 58 90
e 58 92
e 58 94
e 58 95
e 58 100
e 58 101
e 58 106
e 58 107
e 59 61
e 59 62
e 59 64
e 59 68
e 59 69
e 59 71
e 59 72
e 59 74
e 59 75
e 59 76
e 59 77
e 59 78
e 59 79
e 59 83
e 59 85
e 59 86
e 59 88
e 59 89
e 59 90
e 59 94
e 59 95
e 59 96
e 59 97
e 59 98
e 59 99
e 59 100
e 59 101
e 59 104
e 59 105
e 59 106
e 59 107
e 59 109
e 59 113
e 59 115
e 59 117
e 59 118
e 60 65
e 60 66
e 60 68
e 60 70
e 60 80
e 60 81
e 60 84
e 60 91
e 60 93
e 60 102
e 60 103
e 60 108
e 60 110
e 60 111
e 60 112
e 60 114
e 60 116
e 61 64
e 61 68
e 61 69
e 61 74
e 61 75
e 61 78
e 61 79
e 61 83
e 61 88
e 61 89
e 61 90
e 61 94
e 61 95
e 61 96
e 61 97
e 61 98
e 61 100
e 61 101
e 61 106
e 61 107
e 61 109
e 61 113
e 62 64
e 62 68
e 62 69
e 62 71
e 62 72
e 62 74
e 62 75
e 62 78
e 62 79
e 62 88
e 62 89
e 62 90
e 62 94
e 62 95
e 62 96
e 62 97
e 62 100
e 62 101
e 62 106
e 62 107
e 62 109
e 63 64
e 63 68
e 63 73
e 63 74
e 63 78
e 63 82
e 63 87
e 63 88
e 63 89
e 63 90
e 63 92
e 63 94
e 63 95
e 63 100
e 63 101
e 63 106
e 63 107
e 63 108
e 64 65
e 64 67
e 64 69
e 64 71
e 64 72
e 64 73
e 64 74
e 64 75
e 64 76
e 64 77
e 64 78
e 64 79
e 64 82
e 64 83
e 64 85
e 64 86
e 64 87
e 64 88
e 64 89
e 64 90
e 64 92
e 64 94
e 64 95
e 64 96
e 64 97
e 64 98
e 64 99
e 64 100
e 64 101
e 64 104
e 64 105
e 64 106
e 64 107
e 64 109
e 64 112
e 64 113
e 64 115
e 64 117
e 64 118
e 65 68
e 65 70
e 65 74
e 65 80
e 65 88
e 65 89
e 65 90
e 65 91
e 65 94
e 65 106
e 65 108
e 65 110
e 65 111
e 65 112
e 65 114
e 66 68
e 66 70
e 66 80
e 66 81
e 66 88
e 66 91
e 66 102
e 66 108
e 66 110
e 66 111
e 66 116
e 67 68
e 67 69
e 67 74
e 67 78
e 67 79
e 67 88
e 67 89
e 67 90
e 67 94
e 67 95
e 67 100
e 67 101
e 67 106
e 67 107
e 68 69
e 68 70
e 68 71
e 68 72
e 68 73
e 68 75
e 68 76
e 68 77
e 68 79
e 68 80
e 68 81
e 68 82
e 68 83
e 68 84
e 68 85
e 68 86
e 68 87
e 68 91
e 68 92
e 68 93
e 68 96
e 68 97
e 68 98
e 68 99
e 68 102
e 68 103
e 68 104
e 68 105
e 68 108
e 68 109
e 68 110
e 68 111
e 68 112
e 68 113
e 68 114
e 68 115
e 68 116
e 68 117
e 68 118
e 69 71
e 69 72
e 69 74
e 69 75
e 69 76
e 69 77
e 69 78
e 69 79
e 69 83
e 69 85
e 69 86
e 69 88
e 69 89
e 69 90
e 69 94
e 69 95
e 69 96
e 69 97
e 69 98
e 69 99
e 69 100
e 69 101
e 69 104
e 69 105
e 69 106
e 69 107
e 69 109
e 69 113
e 69 115
e 69 117
e 69 118
e 70 80
e 70 81
e 70 82
e 70 84
e 70 91
e 70 92
e 70 93
e 70 102
e 70 103
e 70 108
e 70 110
e 70 111
e 70 112
e 70 114
e 70 116
e 71 72
e 71 74
e 71 75
e 71 78
e 71 79
e 71 88
e 71 89
e 71 90
e 71 94
e 71 95
e 71 96
e 71 97
e 71 98
e 71 100
e 71 101
e 71 106
e 71 107
e 71 109
e 72 74
e 72 75
e 72 78
e 72 79
e 72 88
e 72 89
e 72 90
e 72 94
e 72 95
e 72 96
e 72 97
e 72 98
e 72 100
e 72 101
e 72 105
e 72 106
e 72 107
e 72 109
e 73 74
e 73 78
e 73 82
e 73 87
e 73 88
e 73 89
e 73 90
e 73 92
e 73 94
e 73 95
e 73 100
e 73 101
e 73 106
e 73 107
e 74 75
e 74 76
e 74 77
e 74 78
e 74 79
e 74 82
e 74 83
e 74 85
e 74 86
e 74 87
e 74 88
e 74 89
e 74 90
e 74 92
e 74 94
e 74 95
e 74 96
e 74 97
e 74 98
e 74 99
e 74 100
e 74 101
e 74 104
e 74 105
e 74 106
e 74 107
e 74 109
e 74 113
e 74 115
e 74 117
e 74 118
e 75 76
e 75 77
e 75 78
e 75 79
e 75 83
e 75 85
e 75 86
e 75 88
e 75 89
e 75 90
e 75 94
e 75 95
e 75 96
e 75 97
e 75 98
e 75 99
e 75 100
e 75 101
e 75 104
e 75 106
e 75 107
e 75 109
e 75 113
e 75 115
e 75 117
e 75 118
e 76 77
e 76 78
e 76 79
e 76 83
e 76 88
e 76 89
e 76 90
e 76 94
e 76 95
e 76 96
e 76 97
e 76 98
e 76 100
e 76 101
e 76 106
e 76 107
e 76 109
e 77 78
e 77 79
e 77 83
e 77 88
e 77 89
e 77 90
e 77 94
e 77 95
e 77 96
e 77 97
e 77 98
e 77 100
e 77 101
e 77 106
e 77 107
e 77 109
e 78 79
e 78 82
e 78 83
e 78 85
e 78 86
e 78 87
e 78 88
e 78 89
e 78 90
e 78 92
e 78 94
e 78 95
e 78 96
e 78 97
e 78 98
e 78 99
e 78 100
e 78 101
e 78 104
e 78 105
e 78 106
e 78 107
e 78 109
e 78 113
e 78 115
e 78 117
e 78 118
e 79 83
e 79 85
e 79 86
e 79 88
e 79 89
e 79 90
e 79 94
e 79 95
e 79 96
e 79 97
e 79 98
e 79 99
e 79 100
e 79 101
e 79 104
e 79 105
e 79 106
e 79 107
e 79 109
e 79 110
e 79 113
e 79 115
e 79 117
e 79 118
e 80 81
e 80 82
e 80 84
e 80 87
e 80 91
e 80 92
e 80 93
e 80 102
e 80 103
e 80 108
e 80 110
e 80 111
e 80 112
e 80 114
e 80 116
e 81 84
e 81 88
e 81 91
e 81 93
e 81 102
e 81 103
e 81 108
e 81 110
e 81 111
e 81 116
e 82 87
e 82 88
e 82 89
e 82 90
e 82 92
e 82 94
e 82 95
e 82 100
e 82 101
e 82 106
e 82 107
e 82 108
e 83 88
e 83 89
e 83 90
e 83 94
e 83 95
e 83 96
e 83 97
e 83 98
e 83 100
e 83 101
e 83 106
e 83 107
e 83 109
e 83 113
e 84 88
e 84 91
e 84 102
e 84 108
e 84 110
e 84 111
e 85 88
e 85 89
e 85 90
e 85 94
e 85 95
e 85 96
e 85 97
e 85 98
e 85 100
e 85 101
e 85 106
e 85 107
e 85 109
e 86 88
e 86 89
e 86 90
e 86 94
e 86 95
e 86 96
e 86 97
e 86 98
e 86 100
e 86 101
e 86 106
e 86 107
e 86 109
e 87 88
e 87 89
e 87 90
e 87 92
e 87 94
e 87 95
e 87 100
e 87 101
e 87 106
e 87 107
e 87 108
e 88 89
e 88 90
e 88 91
e 88 92
e 88 93
e 88 94
e 88 95
e 88 96
e 88 97
e 88 98
e 88 99
e 88 100
e 88 101
e 88 102
e 88 103
e 88 104
e 88 105
e 88 106
e 88 107
e 88 109
e 88 112
e 88 113
e 88 114
e 88 115
e 88 116
e 88 117
e 88 118
e 89 90
e 89 92
e 89 94
e 89 95
e 89 96
e 89 97
e 89 98
e 89 99
e 89 100
e 89 101
e 89 104
e 89 105
e 89 106
e 89 107
e 89 109
e 89 112
e 89 113
e 89 114
e 89 115
e 89 117
e 89 118
e 90 92
e 90 94
e 90 95
e 90 96
e 90 97
e 90 98
e 90 99
e 90 100
e 90 101
e 90 104
e 90 105
e 90 106
e 90 107
e 90 109
e 90 112
e 90 113
e 90 114
e 90 115
e 90 117
e 90 118
e 91 93
e 91 94
e 91 102
e 91 103
e 91 108
e 91 110
e 91 111
e 91 112
e 91 114
e 91 116
e 92 94
e 92 95
e 92 100
e 92 101
e 92 106
e 92 107
e 92 108
e 92 111
e 93 102
e 93 108
e 93 110
e 93 111
e 94 95
e 94 96
e 94 97
e 94 98
e 94 99
e 94 100
e 94 101
e 94 104
e 94 105
e 94 106
e 94 107
e 94 109
e 94 112
e 94 113
e 94 114
e 94 115
e 94 117
e 94 118
e 95 96
e 95 97
e 95 98
e 95 99
e 95 100
e 95 101
e 95 104
e 95 105
e 95 106
e 95 107
e 95 109
e 95 113
e 95 115
e 95 117
e 95 118
e 96 97
e 96 98
e 96 99
e 96 100
e 96 101
e 96 104
e 96 105
e 96 106
e 96 107
e 96 109
e 96 113
e 96 115
e 96 117
e 96 118
e 97 98
e 97 99
e 97 100
e 97 101
e 97 104
e 97 106
e 97 107
e 97 109
e 97 113
e 97 115
e 97 117
e 97 118
e 98 99
e 98 100
e 98 101
e 98 104
e 98 106
e 98 107
e 98 109
e 98 113
e 98 115
e 98 117
e 98 118
e 99 100
e 99 101
e 99 106
e 99 107
e 99 109
e 100 101
e 100 104
e 100 105
e 100 106
e 100 107
e 100 109
e 100 113
e 100 115
e 100 117
e 100 118
e 101 104
e 101 105
e 101 106
e 101 107
e 101 109
e 101 113
e 101 115
e 101 117
e 101 118
e 102 103
e 102 108
e 102 110
e 102 111
e 102 116
e 103 108
e 103 110
e 103 111
e 104 106
e 104 107
e 104 109
e 104 118
e 105 106
e 105 107
e 105 109
e 106 107
e 106 109
e 106 112
e 106 113
e 106 114
e 106 115
e 106 117
e 106 118
e 107 109
e 107 113
e 107 115
e 107 117
e 107 118
e 108 110
e 108 111
e 108 112
e 108 114
e 108 116
e 109 113
e 109 115
e 109 117
e 109 118
e 110 111
e 110 112
e 110 114
e 110 116
e 111 112
e 111 114
e 111 116
e 112 114
